Pt 
 1.0000000000000000
    19.2088000000000001    0.0000000000000000    0.0000000000000000
     0.0000000000000000   19.0118000000000009    0.0000000000000000
     0.0000000000000000    0.0000000000000000   29.9999999999999574
 Pt 
 343
Selective dynamics
Cartesian
  8.9507010752204685  8.3861633320958298 14.5861002107297146   T   T   T
  8.9521537403258211 12.9916058029301187 14.6000351628989637   T   T   T
 11.6097430932689196  8.3877002814208268 14.6006877760033955   T   T   T
 11.6179836564078851 12.9962870369232704 14.6079694041943302   T   T   T
 12.9469460121136883 10.6937926757826460 14.6083281875122264   T   T   T
  7.6211454236110345 10.6893336819773666 14.5856921403821378   T   T   T
 10.2832121111196280 10.6909591132991579 14.7082434925449661   T   T   T
  0.6860300000000008  0.3960796051720003  1.1202822988299974   F   F   F
  2.0580899999999969  2.7725572362100044  1.1202822988299974   F   F   F
  0.6860300000000008  3.5647164465499972  3.3608468964800053   F   F   F
  2.0580899999999969  1.1882388155200010  3.3608468964800053   F   F   F
  0.6860300000000008  1.9803980258599920  5.6014114941399820   F   F   F
  2.0580899999999969  4.3568756568900087  5.6014114941399820   F   F   F
  0.6860007884791761  0.3936772616687726  7.9009699178694888   F   F   F
  2.0576587208574875  2.7705797456686723  7.9003257665552091   F   F   F
  0.6846400309448745  3.5605677871332624 10.1997622694547463   F   F   F
  2.0566967748215248  1.1854360669222170 10.2002405331093851   F   F   F
  0.6861438676357984  1.9777871649516463 12.4379054900863668   T   T   T
  2.0548691294246066  4.3521771718395774 12.4373845246153039   T   T   T
  0.6860300000000008  5.1490348672400019  1.1202822988299974   F   F   F
  2.0580899999999969  7.5255124982700003  1.1202822988299974   F   F   F
  0.6860300000000008  8.3176717086199936  3.3608468964800053   F   F   F
  2.0580899999999969  5.9411940775799943  3.3608468964800053   F   F   F
  0.6860300000000008  6.7333532879300071  5.6014114941399820   F   F   F
  2.0580899999999969  9.1098309189600055  5.6014114941399820   F   F   F
  0.6856400881904944  5.1467045657512367  7.8996751189723220   F   F   F
  2.0566568623419381  7.5245036175399589  7.9015713069599594   F   F   F
  0.6842897922469007  8.3148520049332575 10.1999968900297606   F   F   F
  2.0547413060155151  5.9375729036443001 10.1994049712362767   F   F   F
  0.6863760332903350  6.7283417156106058 12.4373470876490515   T   T   T
  2.0512468747550505  9.1069968336804425 12.4419972966183643   T   T   T
  0.6860300000000008  9.9019901292999997  1.1202822988299974   F   F   F
  2.0580899999999969 12.2784677602999963  1.1202822988299974   F   F   F
  0.6860300000000008 13.0706269706999905  3.3608468964800053   F   F   F
  2.0580899999999969 10.6941493396000080  3.3608468964800053   F   F   F
  0.6860300000000008 11.4863085500000039  5.6014114941399820   F   F   F
  2.0580899999999969 13.8627861810000006  5.6014114941399820   F   F   F
  0.6857567867645749  9.9013427699150167  7.9004024794146579   F   F   F
  2.0594674262901913 12.2779707596025496  7.9021741780364483   F   F   F
  0.6868154061904467 13.0686038174745160 10.2007838778353932   F   F   F
  2.0559341046570263 10.6921209244641791 10.2016881338660497   F   F   F
  0.6868990529385191 11.4872940621442527 12.4392845448795715   T   T   T
  2.0548085247513477 13.8652227469595530 12.4392680989787756   T   T   T
  0.6860300000000008 14.6549453913999965  1.1202822988299974   F   F   F
  2.0580899999999969 17.0314230223999914  1.1202822988299974   F   F   F
  0.6860300000000008 17.8235822327000051  3.3608468964800053   F   F   F
  2.0580899999999969 15.4471046017000067  3.3608468964800053   F   F   F
  0.6860300000000008 16.2392638120999990  5.6014114941399820   F   F   F
  2.0580899999999969 18.6157414430999992  5.6014114941399820   F   F   F
  0.6864552394140537 14.6532858715758092  7.9007659887184261   F   F   F
  2.0582796282869995 17.0295759013986476  7.9010796299815871   F   F   F
  0.6856711105907242 17.8201285939914200 10.2005109902567224   F   F   F
  2.0584676002523139 15.4445416857238982 10.2011409891990965   F   F   F
  0.6867653474614820 16.2403664284576941 12.4376654863819827   T   T   T
  2.0556315507702014 18.6162333388498418 12.4381241785780272   T   T   T
  3.4301499999999945  0.3960796051720003  1.1202822988299974   F   F   F
  4.8022099999999917  2.7725572362100044  1.1202822988299974   F   F   F
  3.4301499999999945  3.5647164465499972  3.3608468964800053   F   F   F
  4.8022099999999917  1.1882388155200010  3.3608468964800053   F   F   F
  3.4301499999999945  1.9803980258599920  5.6014114941399820   F   F   F
  4.8022099999999917  4.3568756568900087  5.6014114941399820   F   F   F
  3.4299691283963609  0.3953152600451011  7.9005736787688212   F   F   F
  4.8018837183985283  2.7725204750465497  7.9002877833365615   F   F   F
  3.4270340902062064  3.5622086863755018 10.2002969557094545   F   F   F
  4.8006530956158810  1.1889669763100674 10.1997547237474180   F   F   F
  3.4257014047569436  1.9781458334543707 12.4377670919571468   T   T   T
  4.7940223596972888  4.3481193226196941 12.4415346329298728   T   T   T
  3.4301499999999945  5.1490348672400019  1.1202822988299974   F   F   F
  4.8022099999999917  7.5255124982700003  1.1202822988299974   F   F   F
  3.4301499999999945  8.3176717086199936  3.3608468964800053   F   F   F
  4.8022099999999917  5.9411940775799943  3.3608468964800053   F   F   F
  3.4301499999999945  6.7333532879300071  5.6014114941399820   F   F   F
  4.8022099999999917  9.1098309189600055  5.6014114941399820   F   F   F
  3.4292127163043071  5.1472402835752904  7.9016417622838668   F   F   F
  4.7965638099735939  7.5226257430249968  7.9016202180697297   F   F   F
  3.4247408116293658  8.3148921311489268 10.2074279408501560   F   F   F
  4.7971502953109901  5.9378865082483632 10.2074234254401279   F   F   F
  3.4209220867762959  6.7260039107702427 12.4430241643998070   T   T   T
  4.7758680599334111  9.1027905451160098 12.4447924356556019   T   T   T
  3.4301499999999945  9.9019901292999997  1.1202822988299974   F   F   F
  4.8022099999999917 12.2784677602999963  1.1202822988299974   F   F   F
  3.4301499999999945 13.0706269706999905  3.3608468964800053   F   F   F
  4.8022099999999917 10.6941493396000080  3.3608468964800053   F   F   F
  3.4301499999999945 11.4863085500000039  5.6014114941399820   F   F   F
  4.8022099999999917 13.8627861810000006  5.6014114941399820   F   F   F
  3.4285805146464270  9.9012293255676092  7.9037853400159204   F   F   F
  4.8030164834075428 12.2786394395914407  7.9068650740543172   F   F   F
  3.4333502446054127 13.0683616862791681 10.2058987699785551   F   F   F
  4.7968525012857253 10.6887466400102102 10.2047840074147498   F   F   F
  3.4162644119872021 11.4866244074662376 12.4407953131852587   T   T   T
  4.7857441648891772 13.8758095568291786 12.4398148153177122   T   T   T
  3.4301499999999945 14.6549453913999965  1.1202822988299974   F   F   F
  4.8022099999999917 17.0314230223999914  1.1202822988299974   F   F   F
  3.4301499999999945 17.8235822327000051  3.3608468964800053   F   F   F
  4.8022099999999917 15.4471046017000067  3.3608468964800053   F   F   F
  3.4301499999999945 16.2392638120999990  5.6014114941399820   F   F   F
  4.8022099999999917 18.6157414430999992  5.6014114941399820   F   F   F
  3.4307633257610650 14.6535396209885658  7.9022713236792574   F   F   F
  4.8018277141147934 17.0320433723560569  7.9005584413502747   F   F   F
  3.4288709805982092 17.8235749202221996 10.2003104811490033   F   F   F
  4.8017067911340972 15.4505688449853089 10.2017856199762829   F   F   F
  3.4244223076231957 16.2448775476385840 12.4389680536219398   T   T   T
  4.7960631266721654 18.6203609996855128 12.4380830108289473   T   T   T
  6.1742700000000088  0.3960796051720003  1.1202822988299974   F   F   F
  7.5463300000000064  2.7725572362100044  1.1202822988299974   F   F   F
  6.1742700000000088  3.5647164465499972  3.3608468964800053   F   F   F
  7.5463300000000064  1.1882388155200010  3.3608468964800053   F   F   F
  6.1742700000000088  1.9803980258599920  5.6014114941399820   F   F   F
  7.5463300000000064  4.3568756568900087  5.6014114941399820   F   F   F
  6.1742867170412792  0.3981355958749891  7.9001284668474785   F   F   F
  7.5468892722706862  2.7755923289858386  7.9015507708561303   F   F   F
  6.1715492327442147  3.5650934198375888 10.2012942799468131   F   F   F
  7.5461369803207878  1.1939529101976070 10.1998278531143001   F   F   F
  6.1685827288691755  1.9788653708235624 12.4382860634778272   T   T   T
  7.5372560605277625  4.3441517991570500 12.4403611510122314   T   T   T
  6.1742700000000088  5.1490348672400019  1.1202822988299974   F   F   F
  7.5463300000000064  7.5255124982700003  1.1202822988299974   F   F   F
  6.1742700000000088  8.3176717086199936  3.3608468964800053   F   F   F
  7.5463300000000064  5.9411940775799943  3.3608468964800053   F   F   F
  6.1742700000000088  6.7333532879300071  5.6014114941399820   F   F   F
  7.5463300000000064  9.1098309189600055  5.6014114941399820   F   F   F
  6.1727273671744767  5.1490143399476489  7.9036264208211460   F   F   F
  7.5413802047130769  7.5229327670298067  7.8962035734210900   F   F   F
  6.1591251108654923  8.3100243146575448 10.1906505734420119   F   F   F
  7.5384178740970142  5.9412683098094927 10.2047991637017859   F   F   F
  6.1545600519517842  6.7128341489012229 12.4447570926159390   T   T   T
  7.5084786663506957  9.0884666788569994 12.4419128430229691   T   T   T
  6.1742700000000088  9.9019901292999997  1.1202822988299974   F   F   F
  7.5463300000000064 12.2784677602999963  1.1202822988299974   F   F   F
  6.1742700000000088 13.0706269706999905  3.3608468964800053   F   F   F
  7.5463300000000064 10.6941493396000080  3.3608468964800053   F   F   F
  6.1742700000000088 11.4863085500000039  5.6014114941399820   F   F   F
  7.5463300000000064 13.8627861810000006  5.6014114941399820   F   F   F
  6.1684012831520594  9.9007178247811520  7.8962478187787042   F   F   F
  7.5454112085479439 12.2862054896145239  7.8961933126672772   F   F   F
  6.1767108702553752 13.0798310250026244 10.2047129914936772   F   F   F
  7.5393124276131207 10.6999667842606598 10.1586833272899302   F   F   F
  6.1487302782142699 11.4955900949156824 12.4694937825589189   T   T   T
  7.5257608820565993 13.8870214515770627 12.4848445756907971   T   T   T
  6.1742700000000088 14.6549453913999965  1.1202822988299974   F   F   F
  7.5463300000000064 17.0314230223999914  1.1202822988299974   F   F   F
  6.1742700000000088 17.8235822327000051  3.3608468964800053   F   F   F
  7.5463300000000064 15.4471046017000067  3.3608468964800053   F   F   F
  6.1742700000000088 16.2392638120999990  5.6014114941399820   F   F   F
  7.5463300000000064 18.6157414430999992  5.6014114941399820   F   F   F
  6.1740352618696352 14.6578609591066513  7.9037882474874124   F   F   F
  7.5456165073674875 17.0345306596454229  7.9016014367878888   F   F   F
  6.1736248685028663 17.8288577553581469 10.1999704836177489   F   F   F
  7.5454752230102278 15.4558263495560126 10.2073954376234521   F   F   F
  6.1634557343421328 16.2565628714068282 12.4402587905043109   T   T   T
  7.5413762183133706 18.6263899958460968 12.4379525231392947   T   T   T
  8.9183900000000040  0.3960796051720003  1.1202822988299974   F   F   F
 10.2904500000000017  2.7725572362100044  1.1202822988299974   F   F   F
  8.9183900000000040  3.5647164465499972  3.3608468964800053   F   F   F
 10.2904500000000017  1.1882388155200010  3.3608468964800053   F   F   F
  8.9183900000000040  1.9803980258599920  5.6014114941399820   F   F   F
 10.2904500000000017  4.3568756568900087  5.6014114941399820   F   F   F
  8.9183909642429295  0.3992268833468873  7.8996403841046909   F   F   F
 10.2898926197455918  2.7755922146609691  7.9015506740565113   F   F   F
  8.9183913091694809  3.5715677600513187 10.2052028732800579   F   F   F
 10.2906457268073428  1.1939527379790460 10.1998276252103306   F   F   F
  8.9161425282052704  1.9798135204570835 12.4384585103635796   T   T   T
 10.2925349352904352  4.3380423805412676 12.4396912063701190   T   T   T
  8.9183900000000040  5.1490348672400019  1.1202822988299974   F   F   F
 10.2904500000000017  7.5255124982700003  1.1202822988299974   F   F   F
  8.9183900000000040  8.3176717086199936  3.3608468964800053   F   F   F
 10.2904500000000017  5.9411940775799943  3.3608468964800053   F   F   F
  8.9183900000000040  6.7333532879300071  5.6014114941399820   F   F   F
 10.2904500000000017  9.1098309189600055  5.6014114941399820   F   F   F
  8.9183909641738168  5.1515770396532643  7.9067155927163721   F   F   F
 10.2954016794637724  7.5229326534860226  7.8962034872713653   F   F   F
  8.9183912882583556  8.3113448990729992 10.1586768927587840   F   F   F
 10.2983648177501994  5.9412681483596250 10.2047989565529811   F   F   F
  8.9124388624510917  6.7073056214084872 12.4699345462322277   T   T   T
 10.2892923605256872  9.0974470385146038 12.4140817048898597   T   T   T
  8.9183900000000040  9.9019901292999997  1.1202822988299974   F   F   F
 10.2904500000000017 12.2784677602999963  1.1202822988299974   F   F   F
  8.9183900000000040 13.0706269706999905  3.3608468964800053   F   F   F
 10.2904500000000017 10.6941493396000080  3.3608468964800053   F   F   F
  8.9183900000000040 11.4863085500000039  5.6014114941399820   F   F   F
 10.2904500000000017 13.8627861810000006  5.6014114941399820   F   F   F
  8.9183909513378463  9.9035216587596153  7.8853317981015820   F   F   F
 10.2913706638352398 12.2862053700682843  7.8961932209608028   F   F   F
  8.9183912970061421 13.0904772721248612 10.1906369578369951   F   F   F
 10.2974702490050216 10.6999666061114986 10.1586831187553113   F   F   F
  8.9065798170761070 11.4931314013755674 12.4137519234157860   T   T   T
 10.2892656491608800 13.9154797138932995 12.4792442967049411   T   T   T
  8.9183900000000040 14.6549453913999965  1.1202822988299974   F   F   F
 10.2904500000000017 17.0314230223999914  1.1202822988299974   F   F   F
  8.9183900000000040 17.8235822327000051  3.3608468964800053   F   F   F
 10.2904500000000017 15.4471046017000067  3.3608468964800053   F   F   F
  8.9183900000000040 16.2392638120999990  5.6014114941399820   F   F   F
 10.2904500000000017 18.6157414430999992  5.6014114941399820   F   F   F
  8.9183909600820233 14.6631770559050629  7.9017376906447270   F   F   F
 10.2911653867212607 17.0345305402792846  7.9016013383135597   F   F   F
  8.9183913120336200 17.8311747747529381 10.1988549088825220   F   F   F
 10.2913074808451430 15.4558261742368703 10.2073952065700677   F   F   F
  8.9089679111507181 16.2723577258640013 12.4451128981048704   T   T   T
 10.2916028948028533 18.6261799746991201 12.4375785513661317   T   T   T
 11.6625100000000010  0.3960796051720003  1.1202822988299974   F   F   F
 13.0345699999999987  2.7725572362100044  1.1202822988299974   F   F   F
 11.6625100000000010  3.5647164465499972  3.3608468964800053   F   F   F
 13.0345699999999987  1.1882388155200010  3.3608468964800053   F   F   F
 11.6625100000000010  1.9803980258599920  5.6014114941399820   F   F   F
 13.0345699999999987  4.3568756568900087  5.6014114941399820   F   F   F
 11.6624954571095216  0.3981353458622606  7.9001282250466494   F   F   F
 13.0348984912107539  2.7725200903641438  7.9002873666997777   F   F   F
 11.6652334434249791  3.5650931124607710 10.2012938175949248   F   F   F
 13.0361298492186037  1.1889665609210351 10.1997536590358386   F   F   F
 11.6661580832940377  1.9778115260646434 12.4384613595821190   T   T   T
 13.0449635435706988  4.3411185245460331 12.4405456697203753   T   T   T
 11.6625100000000010  5.1490348672400019  1.1202822988299974   F   F   F
 13.0345699999999987  7.5255124982700003  1.1202822988299974   F   F   F
 11.6625100000000010  8.3176717086199936  3.3608468964800053   F   F   F
 13.0345699999999987  5.9411940775799943  3.3608468964800053   F   F   F
 11.6625100000000010  6.7333532879300071  5.6014114941399820   F   F   F
 13.0345699999999987  9.1098309189600055  5.6014114941399820   F   F   F
 11.6640548005587252  5.1490140974557894  7.9036261849428362   F   F   F
 13.0402183947491803  7.5226253503658089  7.9016198236487742   F   F   F
 11.6776575589616307  8.3100239999298857 10.1906501679831134   F   F   F
 13.0396326192751566  5.9378861020314453 10.2074223582969417   F   F   F
 11.6721118982876781  6.7046787720560381 12.4853032564205328   T   T   T
 13.0782735682939375  9.0830008093739103 12.4797044786873439   T   T   T
 11.6625100000000010  9.9019901292999997  1.1202822988299974   F   F   F
 13.0345699999999987 12.2784677602999963  1.1202822988299974   F   F   F
 11.6625100000000010 13.0706269706999905  3.3608468964800053   F   F   F
 13.0345699999999987 10.6941493396000080  3.3608468964800053   F   F   F
 11.6625100000000010 11.4863085500000039  5.6014114941399820   F   F   F
 13.0345699999999987 13.8627861810000006  5.6014114941399820   F   F   F
 11.6683808824548354  9.9007175677101849  7.8962475991764709   F   F   F
 13.0337657211570939 12.2786390434255548  7.9068646524398352   F   F   F
 11.6600717931831781 13.0798307121187349 10.2047125221848081   F   F   F
 13.0399304227478456 10.6887462283069556 10.2047829504154777   F   F   F
 11.6699271158595295 11.4913154464955003 12.4335730116730439   T   T   T
 13.0554386723559865 13.8832408573987767 12.4875563539905041   T   T   T
 11.6625100000000010 14.6549453913999965  1.1202822988299974   F   F   F
 13.0345699999999987 17.0314230223999914  1.1202822988299974   F   F   F
 11.6625100000000010 17.8235822327000051  3.3608468964800053   F   F   F
 13.0345699999999987 15.4471046017000067  3.3608468964800053   F   F   F
 11.6625100000000010 16.2392638120999990  5.6014114941399820   F   F   F
 13.0345699999999987 18.6157414430999992  5.6014114941399820   F   F   F
 11.6627469080474402 14.6578607009051751  7.9037880059212222   F   F   F
 13.0349544980093519 17.0320429814601866  7.9005580180916546   F   F   F
 11.6631578181847591 17.8288574413249279 10.1999700181326620   F   F   F
 13.0350761500711556 15.4505684275294914 10.2017845474356577   F   F   F
 11.6762261824048341 16.2691443932430140 12.4438566456344120   T   T   T
 13.0418280560338786 18.6236831820500051 12.4388467615140321   T   T   T
 14.4066299999999945  0.3960796051720003  1.1202822988299974   F   F   F
 15.7786899999999921  2.7725572362100044  1.1202822988299974   F   F   F
 14.4066299999999945  3.5647164465499972  3.3608468964800053   F   F   F
 15.7786899999999921  1.1882388155200010  3.3608468964800053   F   F   F
 14.4066299999999945  1.9803980258599920  5.6014114941399820   F   F   F
 15.7786899999999921  4.3568756568900087  5.6014114941399820   F   F   F
 14.4068141641973462  0.3953146165047018  7.9005723968956714   F   F   F
 15.7791242740152153  2.7705790327031257  7.9003238159203022   F   F   F
 14.4097487733211427  3.5622084081713097 10.2002954358492239   F   F   F
 15.7800866346701270  1.1854358880850617 10.2002372669812154   F   F   F
 14.4132611198401861  1.9769083320039988 12.4384223321450236   T   T   T
 15.7881644441830531  4.3476550526706799 12.4388188851392361   T   T   T
 14.4066299999999945  5.1490348672400019  1.1202822988299974   F   F   F
 15.7786899999999921  7.5255124982700003  1.1202822988299974   F   F   F
 14.4066299999999945  8.3176717086199936  3.3608468964800053   F   F   F
 15.7786899999999921  5.9411940775799943  3.3608468964800053   F   F   F
 14.4066299999999945  6.7333532879300071  5.6014114941399820   F   F   F
 15.7786899999999921  9.1098309189600055  5.6014114941399820   F   F   F
 14.4075705690033846  5.1472396457805134  7.9016404857630791   F   F   F
 15.7801261260643990  7.5245028999729788  7.9015693433789016   F   F   F
 14.4120420461548395  8.3148918665553833 10.2074263952988584   F   F   F
 15.7820420653084383  5.9375727400144758 10.1994017080677768   F   F   F
 14.4300267737130223  6.7088921226940732 12.4457745360356427   T   T   T
 15.8099292856897016  9.1053569147848012 12.4444218892607363   T   T   T
 14.4066299999999945  9.9019901292999997  1.1202822988299974   F   F   F
 15.7786899999999921 12.2784677602999963  1.1202822988299974   F   F   F
 14.4066299999999945 13.0706269706999905  3.3608468964800053   F   F   F
 15.7786899999999921 10.6941493396000080  3.3608468964800053   F   F   F
 14.4066299999999945 11.4863085500000039  5.6014114941399820   F   F   F
 15.7786899999999921 13.8627861810000006  5.6014114941399820   F   F   F
 14.4082027656451057  9.9012286819899877  7.9037840553591971   F   F   F
 15.7773155762216035 12.2779700444852082  7.9021722045237972   F   F   F
 14.4034326204399257 13.0683614267755264 10.2058972082693842   F   F   F
 15.7808492779295726 10.6921207740893269 10.2016848705801007   F   F   F
 14.4339397110050989 11.4938541915283405 12.4878362594092867   T   T   T
 15.7960784936182481 13.8721580616834839 12.4379252640929536   T   T   T
 14.4066299999999945 14.6549453913999965  1.1202822988299974   F   F   F
 15.7786899999999921 17.0314230223999914  1.1202822988299974   F   F   F
 14.4066299999999945 17.8235822327000051  3.3608468964800053   F   F   F
 15.7786899999999921 15.4471046017000067  3.3608468964800053   F   F   F
 14.4066299999999945 16.2392638120999990  5.6014114941399820   F   F   F
 15.7786899999999921 18.6157414430999992  5.6014114941399820   F   F   F
 14.4060199612808173 14.6535389770076048  7.9022700322022166   F   F   F
 15.7785033754019430 17.0295751829787321  7.9010776785040200   F   F   F
 14.4079118956543066 17.8235746369307897 10.2003089543254752   F   F   F
 15.7783158090816471 15.4445415208646768 10.2011377292385870   F   F   F
 14.4186277940993115 16.2518013306117979 12.4382851723915877   T   T   T
 15.7856429393035889 18.6180771840361849 12.4385564701326867   T   T   T
 17.1507499999999915  0.3960796051720003  1.1202822988299974   F   F   F
 18.5228100000000069  2.7725572362100044  1.1202822988299974   F   F   F
 17.1507499999999915  3.5647164465499972  3.3608468964800053   F   F   F
 18.5228100000000069  1.1882388155200010  3.3608468964800053   F   F   F
 17.1507499999999915  1.9803980258599920  5.6014114941399820   F   F   F
 18.5228100000000069  4.3568756568900087  5.6014114941399820   F   F   F
 17.1507843657355714  0.3936760882405084  7.9009631372114946   F   F   F
 18.5227911958149356  2.7697322279994130  7.9004199969256499   F   F   F
 17.1521426693766372  3.5605684798586061 10.1997600222842024   F   F   F
 18.5227910360473622  1.1841129665834211 10.2005508572361432   F   F   F
 17.1557022273402247  1.9772110779404011 12.4381834567329772   T   T   T
 18.5262255288533773  4.3520719754654520 12.4374833452952149   T   T   T
 17.1507499999999915  5.1490348672400019  1.1202822988299974   F   F   F
 18.5228100000000069  7.5255124982700003  1.1202822988299974   F   F   F
 17.1507499999999915  8.3176717086199936  3.3608468964800053   F   F   F
 18.5228100000000069  5.9411940775799943  3.3608468964800053   F   F   F
 17.1507499999999915  6.7333532879300071  5.6014114941399820   F   F   F
 18.5228100000000069  9.1098309189600055  5.6014114941399820   F   F   F
 17.1511450591013244  5.1467033876964567  7.8996683572235842   F   F   F
 18.5227911896837618  7.5238915070037278  7.8996748074741934   F   F   F
 17.1524929030965296  8.3148527031011010 10.1999946446541241   F   F   F
 18.5227910275047734  5.9374468541733298 10.1991922902800258   F   F   F
 17.1605116477465671  6.7269494254920641 12.4383100514315785   T   T   T
 18.5309338269468391  9.1075660211960532 12.4389872303753979   T   T   T
 17.1507499999999915  9.9019901292999997  1.1202822988299974   F   F   F
 18.5228100000000069 12.2784677602999963  1.1202822988299974   F   F   F
 17.1507499999999915 13.0706269706999905  3.3608468964800053   F   F   F
 18.5228100000000069 10.6941493396000080  3.3608468964800053   F   F   F
 17.1507499999999915 11.4863085500000039  5.6014114941399820   F   F   F
 18.5228100000000069 13.8627861810000006  5.6014114941399820   F   F   F
 17.1510283468403379  9.9013415912787668  7.9003957366604158   F   F   F
 18.5227911951871782 12.2775069031171729  7.9009184397676124   F   F   F
 17.1499673092306395 13.0686045077844124 10.2007816211830580   F   F   F
 18.5227910360342385 10.6927359690544446 10.2001367203651601   F   F   F
 17.1659304825708077 11.4882423281186110 12.4384529226883949   T   T   T
 18.5284334829958937 13.8652707063363341 12.4379193272951447   T   T   T
 17.1507499999999915 14.6549453913999965  1.1202822988299974   F   F   F
 18.5228100000000069 17.0314230223999914  1.1202822988299974   F   F   F
 17.1507499999999915 17.8235822327000051  3.3608468964800053   F   F   F
 18.5228100000000069 15.4471046017000067  3.3608468964800053   F   F   F
 17.1507499999999915 16.2392638120999990  5.6014114941399820   F   F   F
 18.5228100000000069 18.6157414430999992  5.6014114941399820   F   F   F
 17.1503299173122805 14.6532846968601476  7.9007592172061054   F   F   F
 18.5227912001431747 17.0292665054349897  7.9008663730441011   F   F   F
 17.1511116156324306 17.8201292883851430 10.2005087374631493   F   F   F
 18.5227910348413083 15.4439469911850971 10.1997801863999804   F   F   F
 17.1574230150672129 16.2426361866335007 12.4381429676294157   T   T   T
 18.5256175550747813 18.6152188965625136 12.4381656946369521   T   T   T
