Pt 
 1.0000000000000000
    19.2088000000000001    0.0000000000000000    0.0000000000000000
     0.0000000000000000   19.0118000000000009    0.0000000000000000
     0.0000000000000000    0.0000000000000000   29.9999999999999574
 Pt 
 343
Selective dynamics
Cartesian
  7.5864761239336094  7.5999217656833320 14.5958535918236105   T   T   T
  7.5894036117190353 12.2090352022203099 14.5955257692695373   T   T   T
 10.2503072610463857  7.5999216511057135 14.5958533413807157   T   T   T
 10.2473800117294847 12.2090350631290470 14.5955254940733283   T   T   T
 11.5791524904570231  9.9019908836042596 14.5957902689143388   T   T   T
  6.2576309633051377  9.9019911016743354 14.5957908091916799   T   T   T
  8.9183917378078625  9.9036164043587434 14.7046381043548546   T   T   T
  0.6860300000000008  0.3960796051720003  1.1202822988299974   F   F   F
  2.0580899999999969  2.7725572362100044  1.1202822988299974   F   F   F
  0.6860300000000008  3.5647164465499972  3.3608468964800053   F   F   F
  2.0580899999999969  1.1882388155200010  3.3608468964800053   F   F   F
  0.6860300000000008  1.9803980258599920  5.6014114941399820   F   F   F
  2.0580899999999969  4.3568756568900087  5.6014114941399820   F   F   F
  0.6860007884791761  0.3936772616687726  7.9009699178694888   F   F   F
  2.0576587208574875  2.7705797456686723  7.9003257665552091   F   F   F
  0.6846400309448745  3.5605677871332624 10.1997622694547463   F   F   F
  2.0566967748215248  1.1854360669222170 10.2002405331093851   F   F   F
  0.6833323087437614  1.9759232391382260 12.4377923447802807   T   T   T
  2.0506202619380045  4.3490638273197124 12.4383374987706485   T   T   T
  0.6860300000000008  5.1490348672400019  1.1202822988299974   F   F   F
  2.0580899999999969  7.5255124982700003  1.1202822988299974   F   F   F
  0.6860300000000008  8.3176717086199936  3.3608468964800053   F   F   F
  2.0580899999999969  5.9411940775799943  3.3608468964800053   F   F   F
  0.6860300000000008  6.7333532879300071  5.6014114941399820   F   F   F
  2.0580899999999969  9.1098309189600055  5.6014114941399820   F   F   F
  0.6856400881904944  5.1467045657512367  7.8996751189723220   F   F   F
  2.0566568623419381  7.5245036175399589  7.9015713069599594   F   F   F
  0.6842897922469007  8.3148520049332575 10.1999968900297606   F   F   F
  2.0547413060155151  5.9375729036443001 10.1994049712362767   F   F   F
  0.6801125788034648  6.7281406826981929 12.4384237826569120   T   T   T
  2.0415302780364386  9.1066291167619671 12.4411459298144820   T   T   T
  0.6860300000000008  9.9019901292999997  1.1202822988299974   F   F   F
  2.0580899999999969 12.2784677602999963  1.1202822988299974   F   F   F
  0.6860300000000008 13.0706269706999905  3.3608468964800053   F   F   F
  2.0580899999999969 10.6941493396000080  3.3608468964800053   F   F   F
  0.6860300000000008 11.4863085500000039  5.6014114941399820   F   F   F
  2.0580899999999969 13.8627861810000006  5.6014114941399820   F   F   F
  0.6857567867645749  9.9013427699150167  7.9004024794146579   F   F   F
  2.0594674262901913 12.2779707596025496  7.9021741780364483   F   F   F
  0.6868154061904467 13.0686038174745160 10.2007838778353932   F   F   F
  2.0559341046570263 10.6921209244641791 10.2016881338660497   F   F   F
  0.6793451790839984 11.4874598505698060 12.4399996915294100   T   T   T
  2.0514940111696292 13.8664350605843794 12.4393356217542230   T   T   T
  0.6860300000000008 14.6549453913999965  1.1202822988299974   F   F   F
  2.0580899999999969 17.0314230223999914  1.1202822988299974   F   F   F
  0.6860300000000008 17.8235822327000051  3.3608468964800053   F   F   F
  2.0580899999999969 15.4471046017000067  3.3608468964800053   F   F   F
  0.6860300000000008 16.2392638120999990  5.6014114941399820   F   F   F
  2.0580899999999969 18.6157414430999992  5.6014114941399820   F   F   F
  0.6864552394140537 14.6532858715758092  7.9007659887184261   F   F   F
  2.0582796282869995 17.0295759013986476  7.9010796299815871   F   F   F
  0.6856711105907242 17.8201285939914200 10.2005109902567224   F   F   F
  2.0584676002523139 15.4445416857238982 10.2011409891990965   F   F   F
  0.6832497201352716 16.2393034180165472 12.4374231330692240   T   T   T
  2.0532877395211200 18.6149927534894957 12.4379795474132848   T   T   T
  3.4301499999999945  0.3960796051720003  1.1202822988299974   F   F   F
  4.8022099999999917  2.7725572362100044  1.1202822988299974   F   F   F
  3.4301499999999945  3.5647164465499972  3.3608468964800053   F   F   F
  4.8022099999999917  1.1882388155200010  3.3608468964800053   F   F   F
  3.4301499999999945  1.9803980258599920  5.6014114941399820   F   F   F
  4.8022099999999917  4.3568756568900087  5.6014114941399820   F   F   F
  3.4299691283963609  0.3953152600451011  7.9005736787688212   F   F   F
  4.8018837183985283  2.7725204750465497  7.9002877833365615   F   F   F
  3.4270340902062064  3.5622086863755018 10.2002969557094545   F   F   F
  4.8006530956158810  1.1889669763100674 10.1997547237474180   F   F   F
  3.4236846021766310  1.9754569584022403 12.4381582120109559   T   T   T
  4.7894205761628337  4.3422995483321252 12.4407400877065211   T   T   T
  3.4301499999999945  5.1490348672400019  1.1202822988299974   F   F   F
  4.8022099999999917  7.5255124982700003  1.1202822988299974   F   F   F
  3.4301499999999945  8.3176717086199936  3.3608468964800053   F   F   F
  4.8022099999999917  5.9411940775799943  3.3608468964800053   F   F   F
  3.4301499999999945  6.7333532879300071  5.6014114941399820   F   F   F
  4.8022099999999917  9.1098309189600055  5.6014114941399820   F   F   F
  3.4292127163043071  5.1472402835752904  7.9016417622838668   F   F   F
  4.7965638099735939  7.5226257430249968  7.9016202180697297   F   F   F
  3.4247408116293658  8.3148921311489268 10.2074279408501560   F   F   F
  4.7971502953109901  5.9378865082483632 10.2074234254401279   F   F   F
  3.4086927080098168  6.7199362973267611 12.4413198266995764   T   T   T
  4.7737758918081292  9.0992332518617687 12.4850965803107155   T   T   T
  3.4301499999999945  9.9019901292999997  1.1202822988299974   F   F   F
  4.8022099999999917 12.2784677602999963  1.1202822988299974   F   F   F
  3.4301499999999945 13.0706269706999905  3.3608468964800053   F   F   F
  4.8022099999999917 10.6941493396000080  3.3608468964800053   F   F   F
  3.4301499999999945 11.4863085500000039  5.6014114941399820   F   F   F
  4.8022099999999917 13.8627861810000006  5.6014114941399820   F   F   F
  3.4285805146464270  9.9012293255676092  7.9037853400159204   F   F   F
  4.8030164834075428 12.2786394395914407  7.9068650740543172   F   F   F
  3.4333502446054127 13.0683616862791681 10.2058987699785551   F   F   F
  4.7968525012857253 10.6887466400102102 10.2047840074147498   F   F   F
  3.4022290899279652 11.4897570458234028 12.4446135745463859   T   T   T
  4.7846787240114228 13.8870310737528300 12.4442648881913787   T   T   T
  3.4301499999999945 14.6549453913999965  1.1202822988299974   F   F   F
  4.8022099999999917 17.0314230223999914  1.1202822988299974   F   F   F
  3.4301499999999945 17.8235822327000051  3.3608468964800053   F   F   F
  4.8022099999999917 15.4471046017000067  3.3608468964800053   F   F   F
  3.4301499999999945 16.2392638120999990  5.6014114941399820   F   F   F
  4.8022099999999917 18.6157414430999992  5.6014114941399820   F   F   F
  3.4307633257610650 14.6535396209885658  7.9022713236792574   F   F   F
  4.8018277141147934 17.0320433723560569  7.9005584413502747   F   F   F
  3.4288709805982092 17.8235749202221996 10.2003104811490033   F   F   F
  4.8017067911340972 15.4505688449853089 10.2017856199762829   F   F   F
  3.4224183006106972 16.2465312984181658 12.4394424268325725   T   T   T
  4.7960108762357656 18.6189884293116812 12.4380375242450878   T   T   T
  6.1742700000000088  0.3960796051720003  1.1202822988299974   F   F   F
  7.5463300000000064  2.7725572362100044  1.1202822988299974   F   F   F
  6.1742700000000088  3.5647164465499972  3.3608468964800053   F   F   F
  7.5463300000000064  1.1882388155200010  3.3608468964800053   F   F   F
  6.1742700000000088  1.9803980258599920  5.6014114941399820   F   F   F
  7.5463300000000064  4.3568756568900087  5.6014114941399820   F   F   F
  6.1742867170412792  0.3981355958749891  7.9001284668474785   F   F   F
  7.5468892722706862  2.7755923289858386  7.9015507708561303   F   F   F
  6.1715492327442147  3.5650934198375888 10.2012942799468131   F   F   F
  7.5461369803207878  1.1939529101976070 10.1998278531143001   F   F   F
  6.1679414212727925  1.9748698770660211 12.4391173140683229   T   T   T
  7.5341174552241243  4.3322198201329440 12.4442626790482880   T   T   T
  6.1742700000000088  5.1490348672400019  1.1202822988299974   F   F   F
  7.5463300000000064  7.5255124982700003  1.1202822988299974   F   F   F
  6.1742700000000088  8.3176717086199936  3.3608468964800053   F   F   F
  7.5463300000000064  5.9411940775799943  3.3608468964800053   F   F   F
  6.1742700000000088  6.7333532879300071  5.6014114941399820   F   F   F
  7.5463300000000064  9.1098309189600055  5.6014114941399820   F   F   F
  6.1727273671744767  5.1490143399476489  7.9036264208211460   F   F   F
  7.5413802047130769  7.5229327670298067  7.8962035734210900   F   F   F
  6.1591251108654923  8.3100243146575448 10.1906505734420119   F   F   F
  7.5384178740970142  5.9412683098094927 10.2047991637017859   F   F   F
  6.1500981874528025  6.7143854138095946 12.4851312889690558   T   T   T
  7.5364995154194210  9.1053900331964233 12.4143598040855974   T   T   T
  6.1742700000000088  9.9019901292999997  1.1202822988299974   F   F   F
  7.5463300000000064 12.2784677602999963  1.1202822988299974   F   F   F
  6.1742700000000088 13.0706269706999905  3.3608468964800053   F   F   F
  7.5463300000000064 10.6941493396000080  3.3608468964800053   F   F   F
  6.1742700000000088 11.4863085500000039  5.6014114941399820   F   F   F
  7.5463300000000064 13.8627861810000006  5.6014114941399820   F   F   F
  6.1684012831520594  9.9007178247811520  7.8962478187787042   F   F   F
  7.5454112085479439 12.2862054896145239  7.8961933126672772   F   F   F
  6.1767108702553752 13.0798310250026244 10.2047129914936772   F   F   F
  7.5393124276131207 10.6999667842606598 10.1586833272899302   F   F   F
  6.1343238691670958 11.5108753152890326 12.4648698407476601   T   T   T
  7.5411599078102469 13.8953338651161769 12.4846983148972317   T   T   T
  6.1742700000000088 14.6549453913999965  1.1202822988299974   F   F   F
  7.5463300000000064 17.0314230223999914  1.1202822988299974   F   F   F
  6.1742700000000088 17.8235822327000051  3.3608468964800053   F   F   F
  7.5463300000000064 15.4471046017000067  3.3608468964800053   F   F   F
  6.1742700000000088 16.2392638120999990  5.6014114941399820   F   F   F
  7.5463300000000064 18.6157414430999992  5.6014114941399820   F   F   F
  6.1740352618696352 14.6578609591066513  7.9037882474874124   F   F   F
  7.5456165073674875 17.0345306596454229  7.9016014367878888   F   F   F
  6.1736248685028663 17.8288577553581469 10.1999704836177489   F   F   F
  7.5454752230102278 15.4558263495560126 10.2073954376234521   F   F   F
  6.1658584791055642 16.2575569943274658 12.4404151643354250   T   T   T
  7.5435622118660683 18.6236099154787063 12.4374876060808202   T   T   T
  8.9183900000000040  0.3960796051720003  1.1202822988299974   F   F   F
 10.2904500000000017  2.7725572362100044  1.1202822988299974   F   F   F
  8.9183900000000040  3.5647164465499972  3.3608468964800053   F   F   F
 10.2904500000000017  1.1882388155200010  3.3608468964800053   F   F   F
  8.9183900000000040  1.9803980258599920  5.6014114941399820   F   F   F
 10.2904500000000017  4.3568756568900087  5.6014114941399820   F   F   F
  8.9183909642429295  0.3992268833468873  7.8996403841046909   F   F   F
 10.2898926197455918  2.7755922146609691  7.9015506740565113   F   F   F
  8.9183913091694809  3.5715677600513187 10.2052028732800579   F   F   F
 10.2906457268073428  1.1939527379790460 10.1998276252103306   F   F   F
  8.9183915292773328  1.9772867698796386 12.4386257731989662   T   T   T
 10.3026655249280275  4.3322196948867946 12.4442624465455651   T   T   T
  8.9183900000000040  5.1490348672400019  1.1202822988299974   F   F   F
 10.2904500000000017  7.5255124982700003  1.1202822988299974   F   F   F
  8.9183900000000040  8.3176717086199936  3.3608468964800053   F   F   F
 10.2904500000000017  5.9411940775799943  3.3608468964800053   F   F   F
  8.9183900000000040  6.7333532879300071  5.6014114941399820   F   F   F
 10.2904500000000017  9.1098309189600055  5.6014114941399820   F   F   F
  8.9183909641738168  5.1515770396532643  7.9067155927163721   F   F   F
 10.2954016794637724  7.5229326534860226  7.8962034872713653   F   F   F
  8.9183912882583556  8.3113448990729992 10.1586768927587840   F   F   F
 10.2983648177501994  5.9412681483596250 10.2047989565529811   F   F   F
  8.9183914907633763  6.6883055806525133 12.4652967400857388   T   T   T
 10.3002833900693229  9.1053898929683630 12.4143595638887394   T   T   T
  8.9183900000000040  9.9019901292999997  1.1202822988299974   F   F   F
 10.2904500000000017 12.2784677602999963  1.1202822988299974   F   F   F
  8.9183900000000040 13.0706269706999905  3.3608468964800053   F   F   F
 10.2904500000000017 10.6941493396000080  3.3608468964800053   F   F   F
  8.9183900000000040 11.4863085500000039  5.6014114941399820   F   F   F
 10.2904500000000017 13.8627861810000006  5.6014114941399820   F   F   F
  8.9183909513378463  9.9035216587596153  7.8853317981015820   F   F   F
 10.2913706638352398 12.2862053700682843  7.8961932209608028   F   F   F
  8.9183912970061421 13.0904772721248612 10.1906369578369951   F   F   F
 10.2974702490050216 10.6999666061114986 10.1586831187553113   F   F   F
  8.9183915037664203 11.4994776129767580 12.4141811098415076   T   T   T
 10.2956230618911810 13.8953337279007094 12.4846980782797239   T   T   T
  8.9183900000000040 14.6549453913999965  1.1202822988299974   F   F   F
 10.2904500000000017 17.0314230223999914  1.1202822988299974   F   F   F
  8.9183900000000040 17.8235822327000051  3.3608468964800053   F   F   F
 10.2904500000000017 15.4471046017000067  3.3608468964800053   F   F   F
  8.9183900000000040 16.2392638120999990  5.6014114941399820   F   F   F
 10.2904500000000017 18.6157414430999992  5.6014114941399820   F   F   F
  8.9183909600820233 14.6631770559050629  7.9017376906447270   F   F   F
 10.2911653867212607 17.0345305402792846  7.9016013383135597   F   F   F
  8.9183913120336200 17.8311747747529381 10.1988549088825220   F   F   F
 10.2913074808451430 15.4558261742368703 10.2073952065700677   F   F   F
  8.9183915222357193 16.2659678299302577 12.4406455979872881   T   T   T
 10.2932207943942551 18.6236097787982864 12.4374873732385591   T   T   T
 11.6625100000000010  0.3960796051720003  1.1202822988299974   F   F   F
 13.0345699999999987  2.7725572362100044  1.1202822988299974   F   F   F
 11.6625100000000010  3.5647164465499972  3.3608468964800053   F   F   F
 13.0345699999999987  1.1882388155200010  3.3608468964800053   F   F   F
 11.6625100000000010  1.9803980258599920  5.6014114941399820   F   F   F
 13.0345699999999987  4.3568756568900087  5.6014114941399820   F   F   F
 11.6624954571095216  0.3981353458622606  7.9001282250466494   F   F   F
 13.0348984912107539  2.7725200903641438  7.9002873666997777   F   F   F
 11.6652334434249791  3.5650931124607710 10.2012938175949248   F   F   F
 13.0361298492186037  1.1889665609210351 10.1997536590358386   F   F   F
 11.6688416509951409  1.9748696300434390 12.4391166780221027   T   T   T
 13.0473623381620651  4.3422993308970046 12.4407390908296343   T   T   T
 11.6625100000000010  5.1490348672400019  1.1202822988299974   F   F   F
 13.0345699999999987  7.5255124982700003  1.1202822988299974   F   F   F
 11.6625100000000010  8.3176717086199936  3.3608468964800053   F   F   F
 13.0345699999999987  5.9411940775799943  3.3608468964800053   F   F   F
 11.6625100000000010  6.7333532879300071  5.6014114941399820   F   F   F
 13.0345699999999987  9.1098309189600055  5.6014114941399820   F   F   F
 11.6640548005587252  5.1490140974557894  7.9036261849428362   F   F   F
 13.0402183947491803  7.5226253503658089  7.9016198236487742   F   F   F
 11.6776575589616307  8.3100239999298857 10.1906501679831134   F   F   F
 13.0396326192751566  5.9378861020314453 10.2074223582969417   F   F   F
 11.6866848067844646  6.7143851782906481 12.4851306963394961   T   T   T
 13.0630069863839733  9.0992330048709889 12.4850955980065947   T   T   T
 11.6625100000000010  9.9019901292999997  1.1202822988299974   F   F   F
 13.0345699999999987 12.2784677602999963  1.1202822988299974   F   F   F
 11.6625100000000010 13.0706269706999905  3.3608468964800053   F   F   F
 13.0345699999999987 10.6941493396000080  3.3608468964800053   F   F   F
 11.6625100000000010 11.4863085500000039  5.6014114941399820   F   F   F
 13.0345699999999987 13.8627861810000006  5.6014114941399820   F   F   F
 11.6683808824548354  9.9007175677101849  7.8962475991764709   F   F   F
 13.0337657211570939 12.2786390434255548  7.9068646524398352   F   F   F
 11.6600717931831781 13.0798307121187349 10.2047125221848081   F   F   F
 13.0399304227478456 10.6887462283069556 10.2047829504154777   F   F   F
 11.7024591419407322 11.5108750264404787 12.4648692002470884   T   T   T
 13.0521041690228685 13.8870308115287777 12.4442638699691521   T   T   T
 11.6625100000000010 14.6549453913999965  1.1202822988299974   F   F   F
 13.0345699999999987 17.0314230223999914  1.1202822988299974   F   F   F
 11.6625100000000010 17.8235822327000051  3.3608468964800053   F   F   F
 13.0345699999999987 15.4471046017000067  3.3608468964800053   F   F   F
 11.6625100000000010 16.2392638120999990  5.6014114941399820   F   F   F
 13.0345699999999987 18.6157414430999992  5.6014114941399820   F   F   F
 11.6627469080474402 14.6578607009051751  7.9037880059212222   F   F   F
 13.0349544980093519 17.0320429814601866  7.9005580180916546   F   F   F
 11.6631578181847591 17.8288574413249279 10.1999700181326620   F   F   F
 13.0350761500711556 15.4505684275294914 10.2017845474356577   F   F   F
 11.6709245831302884 16.2575567299693766 12.4404145326144491   T   T   T
 13.0407720654012387 18.6189881852524088 12.4380365325661888   T   T   T
 14.4066299999999945  0.3960796051720003  1.1202822988299974   F   F   F
 15.7786899999999921  2.7725572362100044  1.1202822988299974   F   F   F
 14.4066299999999945  3.5647164465499972  3.3608468964800053   F   F   F
 15.7786899999999921  1.1882388155200010  3.3608468964800053   F   F   F
 14.4066299999999945  1.9803980258599920  5.6014114941399820   F   F   F
 15.7786899999999921  4.3568756568900087  5.6014114941399820   F   F   F
 14.4068141641973462  0.3953146165047018  7.9005723968956714   F   F   F
 15.7791242740152153  2.7705790327031257  7.9003238159203022   F   F   F
 14.4097487733211427  3.5622084081713097 10.2002954358492239   F   F   F
 15.7800866346701270  1.1854358880850617 10.2002372669812154   F   F   F
 14.4130984134076563  1.9754568281658602 12.4381562275420183   T   T   T
 15.7861624265149896  4.3490642433121653 12.4383353629181155   T   T   T
 14.4066299999999945  5.1490348672400019  1.1202822988299974   F   F   F
 15.7786899999999921  7.5255124982700003  1.1202822988299974   F   F   F
 14.4066299999999945  8.3176717086199936  3.3608468964800053   F   F   F
 15.7786899999999921  5.9411940775799943  3.3608468964800053   F   F   F
 14.4066299999999945  6.7333532879300071  5.6014114941399820   F   F   F
 15.7786899999999921  9.1098309189600055  5.6014114941399820   F   F   F
 14.4075705690033846  5.1472396457805134  7.9016404857630791   F   F   F
 15.7801261260643990  7.5245028999729788  7.9015693433789016   F   F   F
 14.4120420461548395  8.3148918665553833 10.2074263952988584   F   F   F
 15.7820420653084383  5.9375727400144758 10.1994017080677768   F   F   F
 14.4280902403836908  6.7199361863995177 12.4413178183628901   T   T   T
 15.7952523855727378  9.1066295420991636 12.4411437688697717   T   T   T
 14.4066299999999945  9.9019901292999997  1.1202822988299974   F   F   F
 15.7786899999999921 12.2784677602999963  1.1202822988299974   F   F   F
 14.4066299999999945 13.0706269706999905  3.3608468964800053   F   F   F
 15.7786899999999921 10.6941493396000080  3.3608468964800053   F   F   F
 14.4066299999999945 11.4863085500000039  5.6014114941399820   F   F   F
 15.7786899999999921 13.8627861810000006  5.6014114941399820   F   F   F
 14.4082027656451057  9.9012286819899877  7.9037840553591971   F   F   F
 15.7773155762216035 12.2779700444852082  7.9021722045237972   F   F   F
 14.4034326204399257 13.0683614267755264 10.2058972082693842   F   F   F
 15.7808492779295726 10.6921207740893269 10.2016848705801007   F   F   F
 14.4345538691935520 11.4897569033834372 12.4446115419243082   T   T   T
 15.7852886668856094 13.8664354544289026 12.4393334541362730   T   T   T
 14.4066299999999945 14.6549453913999965  1.1202822988299974   F   F   F
 15.7786899999999921 17.0314230223999914  1.1202822988299974   F   F   F
 14.4066299999999945 17.8235822327000051  3.3608468964800053   F   F   F
 15.7786899999999921 15.4471046017000067  3.3608468964800053   F   F   F
 14.4066299999999945 16.2392638120999990  5.6014114941399820   F   F   F
 15.7786899999999921 18.6157414430999992  5.6014114941399820   F   F   F
 14.4060199612808173 14.6535389770076048  7.9022700322022166   F   F   F
 15.7785033754019430 17.0295751829787321  7.9010776785040200   F   F   F
 14.4079118956543066 17.8235746369307897 10.2003089543254752   F   F   F
 15.7783158090816471 15.4445415208646768 10.2011377292385870   F   F   F
 14.4143646998952679 16.2465311370723136 12.4394404534326384   T   T   T
 15.7834949628294137 18.6149931429697801 12.4379773991797382   T   T   T
 17.1507499999999915  0.3960796051720003  1.1202822988299974   F   F   F
 18.5228100000000069  2.7725572362100044  1.1202822988299974   F   F   F
 17.1507499999999915  3.5647164465499972  3.3608468964800053   F   F   F
 18.5228100000000069  1.1882388155200010  3.3608468964800053   F   F   F
 17.1507499999999915  1.9803980258599920  5.6014114941399820   F   F   F
 18.5228100000000069  4.3568756568900087  5.6014114941399820   F   F   F
 17.1507843657355714  0.3936760882405084  7.9009631372114946   F   F   F
 18.5227911958149356  2.7697322279994130  7.9004199969256499   F   F   F
 17.1521426693766372  3.5605684798586061 10.1997600222842024   F   F   F
 18.5227910360473622  1.1841129665834211 10.2005508572361432   F   F   F
 17.1534499565358800  1.9759236702008396 12.4377906489525056   T   T   T
 18.5227910990382156  4.3514754271921054 12.4374016715675051   T   T   T
 17.1507499999999915  5.1490348672400019  1.1202822988299974   F   F   F
 18.5228100000000069  7.5255124982700003  1.1202822988299974   F   F   F
 17.1507499999999915  8.3176717086199936  3.3608468964800053   F   F   F
 18.5228100000000069  5.9411940775799943  3.3608468964800053   F   F   F
 17.1507499999999915  6.7333532879300071  5.6014114941399820   F   F   F
 18.5228100000000069  9.1098309189600055  5.6014114941399820   F   F   F
 17.1511450591013244  5.1467033876964567  7.8996683572235842   F   F   F
 18.5227911896837618  7.5238915070037278  7.8996748074741934   F   F   F
 17.1524929030965296  8.3148527031011010 10.1999946446541241   F   F   F
 18.5227910275047734  5.9374468541733298 10.1991922902800258   F   F   F
 17.1566696801137226  6.7281411304478240 12.4384220886271208   T   T   T
 18.5227911062847106  9.1080466119917176 12.4388824780295764   T   T   T
 17.1507499999999915  9.9019901292999997  1.1202822988299974   F   F   F
 18.5228100000000069 12.2784677602999963  1.1202822988299974   F   F   F
 17.1507499999999915 13.0706269706999905  3.3608468964800053   F   F   F
 18.5228100000000069 10.6941493396000080  3.3608468964800053   F   F   F
 17.1507499999999915 11.4863085500000039  5.6014114941399820   F   F   F
 18.5228100000000069 13.8627861810000006  5.6014114941399820   F   F   F
 17.1510283468403379  9.9013415912787668  7.9003957366604158   F   F   F
 18.5227911951871782 12.2775069031171729  7.9009184397676124   F   F   F
 17.1499673092306395 13.0686045077844124 10.2007816211830580   F   F   F
 18.5227910360342385 10.6927359690544446 10.2001367203651601   F   F   F
 17.1574371071214493 11.4874602899134253 12.4399979933679425   T   T   T
 18.5227911060764576 13.8643445129785974 12.4372783415976382   T   T   T
 17.1507499999999915 14.6549453913999965  1.1202822988299974   F   F   F
 18.5228100000000069 17.0314230223999914  1.1202822988299974   F   F   F
 17.1507499999999915 17.8235822327000051  3.3608468964800053   F   F   F
 18.5228100000000069 15.4471046017000067  3.3608468964800053   F   F   F
 17.1507499999999915 16.2392638120999990  5.6014114941399820   F   F   F
 18.5228100000000069 18.6157414430999992  5.6014114941399820   F   F   F
 17.1503299173122805 14.6532846968601476  7.9007592172061054   F   F   F
 18.5227912001431747 17.0292665054349897  7.9008663730441011   F   F   F
 17.1511116156324306 17.8201292883851430 10.2005087374631493   F   F   F
 18.5227910348413083 15.4439469911850971 10.1997801863999804   F   F   F
 17.1535325515709083 16.2393038439578490 12.4374214360409461   T   T   T
 18.5227911086514574 18.6132640442611184 12.4378444175814202   T   T   T
